n = 50;
C = 5651;
w = [337,78,147,120,322,95,197,459,36,295,210,93,65,379,11,216,25,141,95,55,59,312,425,234,478,19,450,207,251,207,57,347,222,230,356,344,437,485,332,372,157,342,231,42,20,283,161,372,153,341];
p = [1695,400,745,610,1620,485,995,2305,190,1485,1060,475,335,1905,65,1090,135,715,485,285,305,1570,2135,1180,2400,105,2260,1045,1265,1045,295,1745,1120,1160,1790,1730,2195,2435,1670,1870,795,1720,1165,220,110,1425,815,1870,775,1715];
